instances/knapsack/discrete_knapsack_uncertainty/knapsack_60_4.lp
\ Model knapsack_60_4
\ LP format - for model browsing. Use MPS format to capture full model detail.
\ Signature: 0x44a844bc7146bef8
Minimize
  - 63 x[0] - 68 x[1] - 81 x[2] - 61 x[3] - 35 x[4] - 98 x[5] - 55 x[6]
   - 17 x[7] - 84 x[8] - 16 x[9] - 4 x[10] - 44 x[11] - 80 x[12] - 79 x[13]
   - 72 x[14] - 49 x[15] - 51 x[16] - 75 x[17] - 16 x[18] - 43 x[19]
   - 59 x[20] - 16 x[21] - 21 x[22] - 9 x[23] - 18 x[24] - 60 x[25] - x[26]
   - 41 x[27] - 79 x[28] - 22 x[29] - 94 x[30] - 97 x[31] - 89 x[32]
   - 44 x[33] - 53 x[34] - 26 x[35] - 26 x[36] - 20 x[37] - 48 x[38]
   - 29 x[39] - 33 x[40] - 63 x[41] - 31 x[42] - 32 x[43] - 56 x[44]
   - 40 x[45] - 38 x[46] - 34 x[47] - 90 x[48] - 99 x[49] - 72 x[50]
   - 4 x[51] - 100 x[52] - 74 x[53] - 17 x[54] - 91 x[55] - 76 x[56]
   - 41 x[57] - 89 x[58] - 68 x[59]
Subject To
 primal_upper: 65 x[0] + 93 x[1] + 95 x[2] + 60 x[3] + 81 x[4] + 99 x[5]
   + 38 x[6] + 77 x[7] + 42 x[8] + 43 x[9] + 17 x[10] + 44 x[11] + 45 x[12]
   + 41 x[13] + 18 x[14] + 94 x[15] + 26 x[16] + 41 x[17] + 42 x[18]
   + 63 x[19] + 86 x[20] + 69 x[21] + 69 x[22] + 12 x[23] + 78 x[24]
   + 97 x[25] + 71 x[26] + 97 x[27] + 19 x[28] + 24 x[29] + 87 x[30]
   + 89 x[31] + x[32] + 50 x[33] + 65 x[34] + 34 x[35] + 9 x[36] + 94 x[37]
   + 37 x[38] + 72 x[39] + 8 x[40] + 59 x[41] + 63 x[42] + 3 x[43]
   + 96 x[44] + 76 x[45] + 51 x[46] + 79 x[47] + 12 x[48] + 45 x[49]
   + 4 x[50] + 37 x[51] + 58 x[52] + 29 x[53] + 6 x[54] + 97 x[55]
   + 46 x[56] + 56 x[57] + 65 x[58] + 95 x[59] + 6.5 r[0] + 9.3 r[1]
   + 9.5 r[2] + 6 r[3] + 8.1 r[4] + 9.9 r[5] + 3.8 r[6] + 7.7 r[7]
   + 4.2 r[8] + 4.3 r[9] + 1.7 r[10] + 4.4 r[11] + 4.5 r[12] + 4.1 r[13]
   + 1.8 r[14] + 9.4 r[15] + 2.6 r[16] + 4.1 r[17] + 4.2 r[18] + 6.3 r[19]
   + 8.6 r[20] + 6.9 r[21] + 6.9 r[22] + 1.2 r[23] + 7.8 r[24] + 9.7 r[25]
   + 7.1 r[26] + 9.7 r[27] + 1.9 r[28] + 2.4 r[29] + 8.7 r[30] + 8.9 r[31]
   + 0.1 r[32] + 5 r[33] + 6.5 r[34] + 3.4 r[35] + 0.9 r[36] + 9.4 r[37]
   + 3.7 r[38] + 7.2 r[39] + 0.8 r[40] + 5.9 r[41] + 6.3 r[42] + 0.3 r[43]
   + 9.6 r[44] + 7.6 r[45] + 5.1 r[46] + 7.9 r[47] + 1.2 r[48] + 4.5 r[49]
   + 0.4 r[50] + 3.7 r[51] + 5.8 r[52] + 2.9 r[53] + 0.6 r[54] + 9.7 r[55]
   + 4.6 r[56] + 5.6 r[57] + 6.5 r[58] + 9.5 r[59] <= 311
 primal_lower: 1.5358209789041 x[0] + 4.304474290232314 x[1]
   + 0.837193488028389 x[2] + 3.926829139560926 x[3]
   + 3.515266427288493 x[4] + 2.614753603933309 x[5]
   + 0.6011201585155881 x[6] + 4.190665461186839 x[7]
   + 2.897599623436061 x[8] + 2.196760458386361 x[9]
   + 0.1314001477860749 x[10] + 3.152428870998079 x[11]
   + 0.5309141477297078 x[12] + 0.5857152633417553 x[13]
   + 1.086126776479416 x[14] + 2.211547921059759 x[15]
   + 1.287144522473247 x[16] + 1.029384190793898 x[17]
   + 2.12135681913135 x[18] + 1.125841713320924 x[19]
   + 2.195570922421393 x[20] + 4.380563627977699 x[21]
   + 3.296302860751279 x[22] + 3.673536659971354 x[23]
   + 4.316961685525129 x[24] + 1.849009375322615 x[25]
   + 3.2397008945835 x[26] + 2.457291106834268 x[27]
   + 0.5184534201737082 x[28] + 3.957660554992437 x[29]
   + 0.4731469047100665 x[30] + 3.847271607485607 x[31]
   + 2.735886794664126 x[32] + 0.6003857324575905 x[33]
   + 4.230995081749038 x[34] + 3.96990020404279 x[35]
   + 1.778022067364637 x[36] + 3.087569846889175 x[37]
   + 4.360322187030731 x[38] + 2.310582589464392 x[39]
   + 2.912956840095621 x[40] + 3.342214451371547 x[41]
   + 2.794439771798804 x[42] + 1.681619649902339 x[43]
   + 2.44722656542682 x[44] + 3.84926859006073 x[45]
   + 4.199000142200918 x[46] + 1.36023784701105 x[47]
   + 2.57491096513228 x[48] + 1.351622311072622 x[49]
   + 1.154158519517991 x[50] + 0.6765787417561027 x[51]
   + 0.9985532707669125 x[52] + 2.654893388404635 x[53]
   + 3.254502178190258 x[54] + 1.566030593469545 x[55]
   + 0.5296524504295165 x[56] + 1.127518044569572 x[57]
   + 2.523582914857638 x[58] + 1.002612727558927 x[59] + 25 u[0] + 50 u[1]
   + 24 u[2] + 33 u[3] + 30 u[4] + 15 u[5] + 67 u[6] + 53 u[7] + 23 u[8]
   + 4 u[9] + 9 u[10] + 69 u[11] + 86 u[12] + 74 u[13] + 90 u[14] + 2 u[15]
   + 7 u[16] + 34 u[17] + 71 u[18] + 68 u[19] + 63 u[20] + 25 u[21]
   + 82 u[22] + 76 u[23] + 10 u[24] + 10 u[25] + 20 u[26] + 81 u[27]
   + 83 u[28] + 41 u[29] + 31 u[30] + 45 u[31] + 77 u[32] + 47 u[33]
   + 58 u[34] + 3 u[35] + 30 u[36] + 70 u[37] + 94 u[38] + 20 u[39]
   + 45 u[40] + 79 u[41] + 64 u[42] + 55 u[43] + 17 u[44] + 24 u[45]
   + 19 u[46] + 83 u[47] + 77 u[48] + 62 u[49] + 32 u[50] + 42 u[51]
   + 3 u[52] + 46 u[53] + 50 u[54] + 65 u[55] + 99 u[56] + 76 u[57]
   + 6 u[58] + 40 u[59] <= 29225
 mccormick1[0]: - u[0] + r[0] <= 0
 mccormick1[1]: - u[1] + r[1] <= 0
 mccormick1[2]: - u[2] + r[2] <= 0
 mccormick1[3]: - u[3] + r[3] <= 0
 mccormick1[4]: - u[4] + r[4] <= 0
 mccormick1[5]: - u[5] + r[5] <= 0
 mccormick1[6]: - u[6] + r[6] <= 0
 mccormick1[7]: - u[7] + r[7] <= 0
 mccormick1[8]: - u[8] + r[8] <= 0
 mccormick1[9]: - u[9] + r[9] <= 0
 mccormick1[10]: - u[10] + r[10] <= 0
 mccormick1[11]: - u[11] + r[11] <= 0
 mccormick1[12]: - u[12] + r[12] <= 0
 mccormick1[13]: - u[13] + r[13] <= 0
 mccormick1[14]: - u[14] + r[14] <= 0
 mccormick1[15]: - u[15] + r[15] <= 0
 mccormick1[16]: - u[16] + r[16] <= 0
 mccormick1[17]: - u[17] + r[17] <= 0
 mccormick1[18]: - u[18] + r[18] <= 0
 mccormick1[19]: - u[19] + r[19] <= 0
 mccormick1[20]: - u[20] + r[20] <= 0
 mccormick1[21]: - u[21] + r[21] <= 0
 mccormick1[22]: - u[22] + r[22] <= 0
 mccormick1[23]: - u[23] + r[23] <= 0
 mccormick1[24]: - u[24] + r[24] <= 0
 mccormick1[25]: - u[25] + r[25] <= 0
 mccormick1[26]: - u[26] + r[26] <= 0
 mccormick1[27]: - u[27] + r[27] <= 0
 mccormick1[28]: - u[28] + r[28] <= 0
 mccormick1[29]: - u[29] + r[29] <= 0
 mccormick1[30]: - u[30] + r[30] <= 0
 mccormick1[31]: - u[31] + r[31] <= 0
 mccormick1[32]: - u[32] + r[32] <= 0
 mccormick1[33]: - u[33] + r[33] <= 0
 mccormick1[34]: - u[34] + r[34] <= 0
 mccormick1[35]: - u[35] + r[35] <= 0
 mccormick1[36]: - u[36] + r[36] <= 0
 mccormick1[37]: - u[37] + r[37] <= 0
 mccormick1[38]: - u[38] + r[38] <= 0
 mccormick1[39]: - u[39] + r[39] <= 0
 mccormick1[40]: - u[40] + r[40] <= 0
 mccormick1[41]: - u[41] + r[41] <= 0
 mccormick1[42]: - u[42] + r[42] <= 0
 mccormick1[43]: - u[43] + r[43] <= 0
 mccormick1[44]: - u[44] + r[44] <= 0
 mccormick1[45]: - u[45] + r[45] <= 0
 mccormick1[46]: - u[46] + r[46] <= 0
 mccormick1[47]: - u[47] + r[47] <= 0
 mccormick1[48]: - u[48] + r[48] <= 0
 mccormick1[49]: - u[49] + r[49] <= 0
 mccormick1[50]: - u[50] + r[50] <= 0
 mccormick1[51]: - u[51] + r[51] <= 0
 mccormick1[52]: - u[52] + r[52] <= 0
 mccormick1[53]: - u[53] + r[53] <= 0
 mccormick1[54]: - u[54] + r[54] <= 0
 mccormick1[55]: - u[55] + r[55] <= 0
 mccormick1[56]: - u[56] + r[56] <= 0
 mccormick1[57]: - u[57] + r[57] <= 0
 mccormick1[58]: - u[58] + r[58] <= 0
 mccormick1[59]: - u[59] + r[59] <= 0
 mccormick2[0]: - x[0] + r[0] <= 0
 mccormick2[1]: - x[1] + r[1] <= 0
 mccormick2[2]: - x[2] + r[2] <= 0
 mccormick2[3]: - x[3] + r[3] <= 0
 mccormick2[4]: - x[4] + r[4] <= 0
 mccormick2[5]: - x[5] + r[5] <= 0
 mccormick2[6]: - x[6] + r[6] <= 0
 mccormick2[7]: - x[7] + r[7] <= 0
 mccormick2[8]: - x[8] + r[8] <= 0
 mccormick2[9]: - x[9] + r[9] <= 0
 mccormick2[10]: - x[10] + r[10] <= 0
 mccormick2[11]: - x[11] + r[11] <= 0
 mccormick2[12]: - x[12] + r[12] <= 0
 mccormick2[13]: - x[13] + r[13] <= 0
 mccormick2[14]: - x[14] + r[14] <= 0
 mccormick2[15]: - x[15] + r[15] <= 0
 mccormick2[16]: - x[16] + r[16] <= 0
 mccormick2[17]: - x[17] + r[17] <= 0
 mccormick2[18]: - x[18] + r[18] <= 0
 mccormick2[19]: - x[19] + r[19] <= 0
 mccormick2[20]: - x[20] + r[20] <= 0
 mccormick2[21]: - x[21] + r[21] <= 0
 mccormick2[22]: - x[22] + r[22] <= 0
 mccormick2[23]: - x[23] + r[23] <= 0
 mccormick2[24]: - x[24] + r[24] <= 0
 mccormick2[25]: - x[25] + r[25] <= 0
 mccormick2[26]: - x[26] + r[26] <= 0
 mccormick2[27]: - x[27] + r[27] <= 0
 mccormick2[28]: - x[28] + r[28] <= 0
 mccormick2[29]: - x[29] + r[29] <= 0
 mccormick2[30]: - x[30] + r[30] <= 0
 mccormick2[31]: - x[31] + r[31] <= 0
 mccormick2[32]: - x[32] + r[32] <= 0
 mccormick2[33]: - x[33] + r[33] <= 0
 mccormick2[34]: - x[34] + r[34] <= 0
 mccormick2[35]: - x[35] + r[35] <= 0
 mccormick2[36]: - x[36] + r[36] <= 0
 mccormick2[37]: - x[37] + r[37] <= 0
 mccormick2[38]: - x[38] + r[38] <= 0
 mccormick2[39]: - x[39] + r[39] <= 0
 mccormick2[40]: - x[40] + r[40] <= 0
 mccormick2[41]: - x[41] + r[41] <= 0
 mccormick2[42]: - x[42] + r[42] <= 0
 mccormick2[43]: - x[43] + r[43] <= 0
 mccormick2[44]: - x[44] + r[44] <= 0
 mccormick2[45]: - x[45] + r[45] <= 0
 mccormick2[46]: - x[46] + r[46] <= 0
 mccormick2[47]: - x[47] + r[47] <= 0
 mccormick2[48]: - x[48] + r[48] <= 0
 mccormick2[49]: - x[49] + r[49] <= 0
 mccormick2[50]: - x[50] + r[50] <= 0
 mccormick2[51]: - x[51] + r[51] <= 0
 mccormick2[52]: - x[52] + r[52] <= 0
 mccormick2[53]: - x[53] + r[53] <= 0
 mccormick2[54]: - x[54] + r[54] <= 0
 mccormick2[55]: - x[55] + r[55] <= 0
 mccormick2[56]: - x[56] + r[56] <= 0
 mccormick2[57]: - x[57] + r[57] <= 0
 mccormick2[58]: - x[58] + r[58] <= 0
 mccormick2[59]: - x[59] + r[59] <= 0
 mccormick3[0]: x[0] + u[0] - r[0] <= 1
 mccormick3[1]: x[1] + u[1] - r[1] <= 1
 mccormick3[2]: x[2] + u[2] - r[2] <= 1
 mccormick3[3]: x[3] + u[3] - r[3] <= 1
 mccormick3[4]: x[4] + u[4] - r[4] <= 1
 mccormick3[5]: x[5] + u[5] - r[5] <= 1
 mccormick3[6]: x[6] + u[6] - r[6] <= 1
 mccormick3[7]: x[7] + u[7] - r[7] <= 1
 mccormick3[8]: x[8] + u[8] - r[8] <= 1
 mccormick3[9]: x[9] + u[9] - r[9] <= 1
 mccormick3[10]: x[10] + u[10] - r[10] <= 1
 mccormick3[11]: x[11] + u[11] - r[11] <= 1
 mccormick3[12]: x[12] + u[12] - r[12] <= 1
 mccormick3[13]: x[13] + u[13] - r[13] <= 1
 mccormick3[14]: x[14] + u[14] - r[14] <= 1
 mccormick3[15]: x[15] + u[15] - r[15] <= 1
 mccormick3[16]: x[16] + u[16] - r[16] <= 1
 mccormick3[17]: x[17] + u[17] - r[17] <= 1
 mccormick3[18]: x[18] + u[18] - r[18] <= 1
 mccormick3[19]: x[19] + u[19] - r[19] <= 1
 mccormick3[20]: x[20] + u[20] - r[20] <= 1
 mccormick3[21]: x[21] + u[21] - r[21] <= 1
 mccormick3[22]: x[22] + u[22] - r[22] <= 1
 mccormick3[23]: x[23] + u[23] - r[23] <= 1
 mccormick3[24]: x[24] + u[24] - r[24] <= 1
 mccormick3[25]: x[25] + u[25] - r[25] <= 1
 mccormick3[26]: x[26] + u[26] - r[26] <= 1
 mccormick3[27]: x[27] + u[27] - r[27] <= 1
 mccormick3[28]: x[28] + u[28] - r[28] <= 1
 mccormick3[29]: x[29] + u[29] - r[29] <= 1
 mccormick3[30]: x[30] + u[30] - r[30] <= 1
 mccormick3[31]: x[31] + u[31] - r[31] <= 1
 mccormick3[32]: x[32] + u[32] - r[32] <= 1
 mccormick3[33]: x[33] + u[33] - r[33] <= 1
 mccormick3[34]: x[34] + u[34] - r[34] <= 1
 mccormick3[35]: x[35] + u[35] - r[35] <= 1
 mccormick3[36]: x[36] + u[36] - r[36] <= 1
 mccormick3[37]: x[37] + u[37] - r[37] <= 1
 mccormick3[38]: x[38] + u[38] - r[38] <= 1
 mccormick3[39]: x[39] + u[39] - r[39] <= 1
 mccormick3[40]: x[40] + u[40] - r[40] <= 1
 mccormick3[41]: x[41] + u[41] - r[41] <= 1
 mccormick3[42]: x[42] + u[42] - r[42] <= 1
 mccormick3[43]: x[43] + u[43] - r[43] <= 1
 mccormick3[44]: x[44] + u[44] - r[44] <= 1
 mccormick3[45]: x[45] + u[45] - r[45] <= 1
 mccormick3[46]: x[46] + u[46] - r[46] <= 1
 mccormick3[47]: x[47] + u[47] - r[47] <= 1
 mccormick3[48]: x[48] + u[48] - r[48] <= 1
 mccormick3[49]: x[49] + u[49] - r[49] <= 1
 mccormick3[50]: x[50] + u[50] - r[50] <= 1
 mccormick3[51]: x[51] + u[51] - r[51] <= 1
 mccormick3[52]: x[52] + u[52] - r[52] <= 1
 mccormick3[53]: x[53] + u[53] - r[53] <= 1
 mccormick3[54]: x[54] + u[54] - r[54] <= 1
 mccormick3[55]: x[55] + u[55] - r[55] <= 1
 mccormick3[56]: x[56] + u[56] - r[56] <= 1
 mccormick3[57]: x[57] + u[57] - r[57] <= 1
 mccormick3[58]: x[58] + u[58] - r[58] <= 1
 mccormick3[59]: x[59] + u[59] - r[59] <= 1
Bounds
Binaries
 x[0] x[1] x[2] x[3] x[4] x[5] x[6] x[7] x[8] x[9] x[10] x[11] x[12] x[13]
 x[14] x[15] x[16] x[17] x[18] x[19] x[20] x[21] x[22] x[23] x[24] x[25]
 x[26] x[27] x[28] x[29] x[30] x[31] x[32] x[33] x[34] x[35] x[36] x[37]
 x[38] x[39] x[40] x[41] x[42] x[43] x[44] x[45] x[46] x[47] x[48] x[49]
 x[50] x[51] x[52] x[53] x[54] x[55] x[56] x[57] x[58] x[59] u[0] u[1] u[2]
 u[3] u[4] u[5] u[6] u[7] u[8] u[9] u[10] u[11] u[12] u[13] u[14] u[15]
 u[16] u[17] u[18] u[19] u[20] u[21] u[22] u[23] u[24] u[25] u[26] u[27]
 u[28] u[29] u[30] u[31] u[32] u[33] u[34] u[35] u[36] u[37] u[38] u[39]
 u[40] u[41] u[42] u[43] u[44] u[45] u[46] u[47] u[48] u[49] u[50] u[51]
 u[52] u[53] u[54] u[55] u[56] u[57] u[58] u[59] r[0] r[1] r[2] r[3] r[4]
 r[5] r[6] r[7] r[8] r[9] r[10] r[11] r[12] r[13] r[14] r[15] r[16] r[17]
 r[18] r[19] r[20] r[21] r[22] r[23] r[24] r[25] r[26] r[27] r[28] r[29]
 r[30] r[31] r[32] r[33] r[34] r[35] r[36] r[37] r[38] r[39] r[40] r[41]
 r[42] r[43] r[44] r[45] r[46] r[47] r[48] r[49] r[50] r[51] r[52] r[53]
 r[54] r[55] r[56] r[57] r[58] r[59]
End
