instances/knapsack/discrete_knapsack_uncertainty/knapsack_60_4.kp
36492
60
311

65 6.5 63
93 9.3 68
95 9.5 81
60 6.0 61
81 8.1 35
99 9.9 98
38 3.8 55
77 7.7 17
42 4.2 84
43 4.3 16
17 1.7 4
44 4.4 44
45 4.5 80
41 4.1 79
18 1.8 72
94 9.4 49
26 2.6 51
41 4.1 75
42 4.2 16
63 6.3 43
86 8.6 59
69 6.9 16
69 6.9 21
12 1.2 9
78 7.8 18
97 9.7 60
71 7.1 1
97 9.7 41
19 1.9 79
24 2.4 22
87 8.7 94
89 8.9 97
1 0.1 89
50 5.0 44
65 6.5 53
34 3.4 26
9 0.9 26
94 9.4 20
37 3.7 48
72 7.2 29
8 0.8 33
59 5.9 63
63 6.3 31
3 0.3 32
96 9.6 56
76 7.6 40
51 5.1 38
79 7.9 34
12 1.2 90
45 4.5 99
4 0.4 72
37 3.7 4
58 5.8 100
29 2.9 74
6 0.6 17
97 9.7 91
46 4.6 76
56 5.6 41
65 6.5 89
95 9.5 68

29225
265

[1.5358209789040995 4.304474290232314 0.837193488028389 3.9268291395609256 3.515266427288493 2.6147536039333095 0.6011201585155881 4.190665461186839 2.8975996234360615 2.1967604583863607 0.13140014778607487 3.152428870998079 0.5309141477297078 0.5857152633417553 1.0861267764794158 2.2115479210597586 1.287144522473247 1.029384190793898 2.1213568191313503 1.1258417133209238 2.195570922421393 4.380563627977699 3.296302860751279 3.6735366599713544 4.316961685525129 1.8490093753226147 3.2397008945835 2.457291106834268 0.5184534201737082 3.9576605549924366 0.47314690471006654 3.847271607485607 2.7358867946641263 0.6003857324575905 4.230995081749038 3.9699002040427898 1.7780220673646365 3.0875698468891755 4.360322187030731 2.310582589464392 2.9129568400956214 3.3422144513715475 2.794439771798804 1.6816196499023393 2.44722656542682 3.8492685900607304 4.199000142200918 1.36023784701105 2.57491096513228 1.3516223110726224 1.1541585195179909 0.6765787417561027 0.9985532707669125 2.654893388404635 3.254502178190258 1.5660305934695453 0.5296524504295165 1.1275180445695725 2.523582914857638 1.0026127275589267]

[25 50 24 33 30 15 67 53 23 4 9 69 86 74 90 2 7 34 71 68 63 25 82 76 10 10 20 81 83 41 31 45 77 47 58 3 30 70 94 20 45 79 64 55 17 24 19 83 77 62 32 42 3 46 50 65 99 76 6 40]
